Route #1: 1 8 17 19 30 33 20 22 42 1
Route #2: 1 7 14 38 35 9 43 31 12 1
Route #3: 1 18 6 41 13 29 26 4 36 1
Route #4: 1 24 11 10 1
Route #5: 1 2 16 34 32 28 21 1
Route #6: 1 37 3 15 27 25 40 44 1
Route #7: 1 5 23 39 1
cost 1064.3470633231707
